results/res_prop_muc/res_Cimatti_mathsat_cores/QF_IDL/DTP_k2_n35_c210_s16.smt.smt2.res
unsat
( c1
  c101
  c102
  c103
  c104
  c106
  c108
  c109
  c11
  c110
  c111
  c112
  c114
  c115
  c116
  c118
  c119
  c12
  c120
  c121
  c123
  c125
  c126
  c129
  c130
  c133
  c136
  c139
  c14
  c144
  c145
  c147
  c148
  c150
  c151
  c152
  c153
  c155
  c156
  c158
  c159
  c16
  c161
  c162
  c163
  c164
  c165
  c166
  c168
  c17
  c170
  c172
  c175
  c176
  c177
  c179
  c180
  c181
  c184
  c188
  c189
  c19
  c194
  c195
  c196
  c198
  c2
  c20
  c202
  c203
  c205
  c207
  c21
  c22
  c23
  c24
  c26
  c28
  c29
  c3
  c31
  c33
  c36
  c38
  c4
  c42
  c43
  c44
  c45
  c46
  c48
  c5
  c50
  c51
  c53
  c54
  c55
  c57
  c58
  c59
  c63
  c65
  c68
  c69
  c70
  c71
  c72
  c73
  c75
  c77
  c78
  c79
  c80
  c82
  c83
  c85
  c86
  c88
  c90
  c91
  c92
  c93
  c98 )
